NAME : XML100_3136_23
DIMENSION : 101
NB_CLUSTERS : 35
CLUSTERING_ALG : DBSCAN
CLUSTERING_PARAMS : eps(43), minSamples(3)
CLUSTERS
1 0
2 3 11 45 56 74
3 19 20 29 43 70 77 95
4 10 16 23 71
5 2 33
6 38 67 97
7 49 59 65
8 18 55
9 25 37 96
10 50 89
11 15 46 62 81 85 94
12 28 30
13 41 93
14 22 32 35 60 80
15 31 39 66
16 1 14 90
17 12 34 76
18 6 100
19 8 69 84
20 4 5 7 26 75 88 98
21 64 83
22 21 36
23 53 63
24 17 72 86
25 42 44
26 79 82
27 27 57
28 47 54 61
29 13 68
30 40 51
31 52 92
32 73 78
33 87 91 99
34 24 58
35 9 48
EOF